% number of games is 60
num = 60;
cap = 5;
refill = 2;
fun = [-20, 17, -11, -2, 0, 1, 0, 7, 13, -15, -3, -8, -8, -15, -14, -1, 13, 0, 14, -20, -20, 15, 17, -20, -12, 0, -12, -16, 15, -18, 2, -6, -3, -4, -7, -20, 3, -7, 10, -11, 20, -16, -14, 11, 15, -8, -16, 1, -16, 6, -7, 1, -12, 17, 1, 3, 2, 13, 18, 10];
